
234
750
   600      1
   599      2
   598      1
   597      1
   594      1
   593      1
   590      1
   589      3
   584      1
   583      1
   582      1
   576      2
   571      1
   569      1
   568      1
   564      1
   560      1
   559      3
   558      1
   557      1
   556      1
   552      1
   548      1
   547      1
   545      2
   544      1
   543      3
   539      2
   537      1
   536      3
   534      1
   533      1
   531      1
   530      2
   526      2
   521      1
   519      1
   518      1
   516      1
   514      1
   510      1
   508      1
   507      1
   504      1
   503      1
   502      1
   501      1
   500      1
   499      1
   493      1
   491      2
   489      2
   488      1
   487      1
   483      1
   481      1
   480      1
   478      1
   477      2
   474      1
   470      1
   466      1
   465      1
   463      2
   459      1
   458      2
   456      1
   455      2
   451      1
   448      1
   447      1
   442      2
   440      1
   437      1
   436      1
   434      1
   433      1
   431      1
   428      1
   425      1
   424      2
   422      3
   420      1
   416      1
   415      3
   412      1
   408      1
   405      2
   404      1
   403      1
   394      2
   392      2
   391      1
   387      1
   384      2
   381      1
   376      1
   374      1
   373      1
   372      2
   370      2
   369      1
   367      1
   366      1
   365      1
   364      1
   362      1
   361      2
   360      1
   354      1
   352      1
   350      1
   344      1
   341      1
   340      2
   337      1
   336      1
   334      1
   330      1
   329      1
   327      1
   326      1
   325      2
   322      1
   319      1
   317      2
   313      1
   312      1
   308      1
   307      1
   304      1
   301      1
   299      1
   298      1
   297      1
   296      2
   292      1
   289      2
   288      2
   284      1
   281      1
   280      1
   276      1
   275      1
   273      1
   271      1
   269      1
   266      1
   265      1
   263      2
   261      1
   258      1
   254      2
   253      1
   250      1
   248      1
   246      1
   244      1
   243      1
   242      2
   241      1
   237      1
   236      1
   234      2
   233      2
   232      2
   231      4
   225      1
   224      1
   222      1
   221      1
   220      2
   219      3
   218      1
   217      1
   215      1
   211      1
   210      1
   209      2
   207      1
   206      1
   205      1
   204      1
   200      1
   199      1
   198      1
   197      1
   193      1
   191      2
   190      2
   189      1
   185      1
   184      2
   179      2
   177      1
   175      1
   173      1
   172      2
   167      1
   164      1
   160      2
   158      1
   156      1
   155      1
   154      1
   153      1
   151      2
   148      1
   140      1
   138      2
   137      1
   133      3
   130      1
   129      2
   123      1
   118      1
   116      2
   115      1
   114      1
   113      2
   112      1
   111      1
   109      1
   106      1
    98      1
    95      1
    93      1
    92      1
    90      1
    84      1
    82      1
    81      2
    80      1
    77      1




The initial LP solution: time=0.26


File: BPP_300_750_0.1_0.8_0.txt  Instance No. 1
Wed Feb 25 13:33:47 2015

LP solution: lpval=136.8826530612245 lpbnd=137

1: 0:1 207:1 obj 1\\
1: 1:1 206:1 obj 1\\
1: 3:1 205:1 obj 1\\
1: 4:1 202:1 obj 1\\
0.2142857142857143: 5:1 203:1 obj 1\\
1: 6:1 200:1 obj 1\\
1: 7:1 200:1 obj 1\\
1: 7:1 201:1 obj 1\\
1: 8:1 199:1 obj 1\\
1: 9:1 198:1 obj 1\\
0.6147959183673468: 10:1 228:1 233:1 obj 1\\
1: 11:1 196:1 obj 1\\
1: 11:1 197:1 obj 1\\
1: 12:1 193:1 obj 1\\
1: 13:1 193:1 obj 1\\
1: 16:1 189:1 obj 1\\
2: 17:1 188:1 obj 1\\
1: 17:1 189:1 obj 1\\
1: 18:1 190:1 obj 1\\
1: 19:1 187:1 obj 1\\
0.7857142857142857: 20:1 218:1 232:1 obj 1\\
1: 21:1 185:1 obj 1\\
1: 22:1 183:1 obj 1\\
1: 23:1 184:1 obj 1\\
0.3698979591836733: 24:1 181:1 obj 1\\
1: 25:1 180:1 obj 1\\
1: 26:1 179:1 obj 1\\
1: 27:1 176:1 obj 1\\
1: 28:1 177:1 obj 1\\
1: 29:1 178:1 obj 1\\
1.704081632653061: 29:1 211:1 231:1 obj 1\\
1: 30:1 175:1 obj 1\\
1: 31:1 174:1 obj 1\\
1: 32:1 172:1 obj 1\\
2: 33:1 171:1 obj 1\\
1: 34:1 168:1 obj 1\\
1: 35:1 167:1 obj 1\\
1: 36:1 166:1 obj 1\\
1: 37:1 165:1 obj 1\\
1: 38:1 163:1 obj 1\\
1: 39:1 162:1 obj 1\\
1: 40:1 161:1 obj 1\\
1: 41:1 159:1 obj 1\\
1: 42:1 158:1 obj 1\\
1: 43:1 156:1 obj 1\\
0.8239795918367347: 44:1 157:1 obj 1\\
1: 45:1 155:1 obj 1\\
1: 47:1 154:1 obj 1\\
1: 49:1 152:1 obj 1\\
1: 50:1 151:1 obj 1\\
0.2295918367346937: 50:1 152:1 obj 1\\
1: 51:1 150:1 obj 1\\
1: 52:1 211:1 213:1 obj 1\\
1: 53:1 149:1 obj 1\\
1: 54:1 147:1 obj 1\\
1: 55:1 146:1 obj 1\\
1: 56:1 148:1 obj 1\\
0.8188775510204084: 57:1 145:1 obj 1\\
1: 58:1 144:1 obj 1\\
0.8188775510204084: 58:1 149:1 obj 1\\
0.7219387755102039: 59:1 142:1 obj 1\\
0.7219387755102039: 60:1 141:1 obj 1\\
1: 61:1 139:1 obj 1\\
1: 62:1 140:1 obj 1\\
1: 63:1 195:1 220:1 obj 1\\
1: 64:1 137:1 obj 1\\
1: 65:1 136:1 obj 1\\
0.3673469387755102: 65:1 138:1 obj 1\\
0.1326530612244898: 66:1 138:1 obj 1\\
1: 68:1 132:1 obj 1\\
1: 69:1 131:1 obj 1\\
1: 70:1 133:1 obj 1\\
1: 71:1 128:1 obj 1\\
1: 71:1 129:1 obj 1\\
1: 72:1 130:1 obj 1\\
1: 73:1 126:1 obj 1\\
1: 74:1 127:1 obj 1\\
1: 76:1 125:1 obj 1\\
0.07653061224489832: 77:1 124:1 obj 1\\
1: 78:1 123:1 obj 1\\
0.9515306122448979: 79:1 122:1 obj 1\\
1: 80:1 121:1 obj 1\\
1: 81:1 120:1 obj 1\\
0.04846938775510212: 81:1 122:1 obj 1\\
0.0280612244897962: 81:1 173:1 222:1 obj 1\\
1: 82:1 118:1 obj 1\\
0.6428571428571432: 83:1 117:1 obj 1\\
1: 84:1 119:1 obj 1\\
0.7704081632653061: 85:1 115:1 obj 1\\
0.3698979591836733: 86:1 113:1 obj 1\\
1: 87:1 112:1 obj 1\\
1: 88:1 114:1 obj 1\\
0.3698979591836733: 89:1 160:1 223:1 obj 1\\
1: 90:1 109:1 obj 1\\
0.2882653061224488: 90:1 110:1 obj 1\\
1: 91:1 111:1 obj 1\\
0.5969387755102041: 93:1 106:1 obj 1\\
1: 94:1 103:1 obj 1\\
0.5: 95:1 101:1 obj 1\\
1: 96:1 97:1 obj 1\\
1: 98:1 99:1 obj 1\\
0.3877551020408162: 100:2 obj 1\\
0.7091836734693879: 107:1 135:1 226:1 obj 1\\
1: 99:1 100:1 obj 1\\
0.2295918367346939: 86:1 115:1 obj 1\\
0.6301020408163267: 89:1 113:1 obj 1\\
0.5: 101:1 102:1 obj 1\\
0.1811224489795916: 57:1 209:1 211:1 obj 1\\
1: 15:1 192:1 obj 1\\
0.6147959183673468: 75:1 163:1 230:1 obj 1\\
0.7857142857142857: 7:1 203:1 obj 1\\
1: 24:1 182:1 obj 1\\
0.8010204081632658: 26:1 186:1 obj 1\\
1: 34:1 169:1 obj 1\\
0.9234693877551017: 77:1 125:1 obj 1\\
1: 80:1 122:1 obj 1\\
0.7117346938775512: 91:1 110:1 obj 1\\
0.8954081632653064: 94:1 104:1 obj 1\\
0.1326530612244898: 20:1 191:1 obj 1\\
0.2780612244897961: 26:1 217:1 227:1 obj 1\\
1: 27:1 178:1 obj 1\\
0.7704081632653063: 51:1 152:1 obj 1\\
0.6326530612244898: 65:1 137:1 obj 1\\
0.04846938775510207: 79:1 164:1 227:1 obj 1\\
0.4030612244897959: 93:1 107:1 obj 1\\
0.5: 95:1 102:1 obj 1\\
0.7857142857142857: 5:1 204:1 obj 1\\
0.2295918367346937: 29:1 212:1 229:1 obj 1\\
0.4005102040816328: 46:1 160:1 obj 1\\
0.2780612244897961: 60:1 142:1 obj 1\\
0.3673469387755102: 67:1 137:1 obj 1\\
1: 67:1 192:1 221:1 obj 1\\
0.04846938775510223: 67:1 197:1 214:1 obj 1\\
0.2295918367346939: 85:1 116:1 obj 1\\
0.4005102040816325: 86:1 114:1 obj 1\\
0.7704081632653061: 116:1 135:1 215:1 obj 1\\
0.1352040816326528: 135:1 164:1 172:1 obj 1\\
0.2780612244897961: 63:1 141:1 obj 1\\
0.5994897959183675: 87:1 114:1 obj 1\\
0.7704081632653061: 108:1 153:1 210:1 obj 1\\
1.5: 138:1 166:2 obj 1\\
0.6301020408163267: 26:1 181:1 obj 1\\
0.1760204081632653: 44:1 159:1 obj 1\\
0.1147959183673469: 51:1 153:1 obj 1\\
0.9234693877551017: 81:1 124:1 obj 1\\
0.1045918367346936: 94:1 105:1 obj 1\\
0.6734693877551019: 107:1 134:1 227:1 obj 1\\
0.03826530612244916: 125:2 216:1 obj 1\\
0.6301020408163267: 24:1 223:1 224:1 obj 1\\
0.2908163265306121: 26:1 219:1 226:1 obj 1\\
0.5994897959183672: 46:1 159:1 obj 1\\
0.1760204081632653: 48:1 157:1 obj 1\\
0.1811224489795916: 58:1 145:1 obj 1\\
0.8673469387755102: 66:1 191:1 222:1 obj 1\\
0.3571428571428568: 84:1 117:1 obj 1\\
0.2142857142857143: 107:1 143:1 218:1 obj 1\\
0.2295918367346939: 108:1 173:1 197:1 obj 1\\
0.2142857142857143: 7:1 231:1 232:1 obj 1\\
0.3852040816326531: 10:1 229:1 230:1 obj 1\\
1: 14:1 194:1 obj 1\\
0.7704081632653063: 50:1 212:1 213:1 obj 1\\
0.2780612244897961: 59:1 143:1 obj 1\\
0.7219387755102039: 63:1 197:1 217:1 obj 1\\
1: 81:1 164:1 225:1 obj 1\\
0.3571428571428568: 83:1 173:1 216:1 obj 1\\
0.4005102040816325: 87:1 165:1 219:1 obj 1\\
0.4030612244897959: 106:1 143:1 219:1 obj 1\\
1: 2:1 206:1 obj 1\\
0.08163265306122444: 20:1 219:1 231:1 obj 1\\
0.8239795918367347: 48:1 209:1 219:1 obj 1\\
0.1147959183673469: 51:1 213:2 obj 1\\
0.1989795918367342: 67:1 186:1 224:1 obj 1\\
0.7117346938775512: 90:1 164:1 214:1 obj 1\\
0.2295918367346939: 91:1 170:1 210:1 obj 1\\
0.1045918367346937: 104:1 143:1 222:1 obj 1\\
0.2142857142857143: 105:1 165:1 204:1 obj 1\\
1: 1:1 208:1 obj 1\\
0.3852040816326531: 67:1 173:1 233:1 obj 1\\
0.3852040816326531: 75:1 165:1 229:1 obj 1\\
1.538265306122449: 84:1 172:1 216:1 obj 1\\
0.2295918367346939: 92:1 160:1 215:1 obj 1\\
0.2244897959183676: 100:1 159:1 209:1 obj 1\\
0.3852040816326531: 105:1 135:1 228:1 obj 1\\
0.1811224489795916: 105:1 149:1 214:1 obj 1\\
0.114795918367347: 105:1 153:1 211:1 obj 1\\
0.3265306122448982: 134:1 163:1 172:1 obj 1\\
0.104591836734694: 84:1 164:1 224:1 obj 1\\
0.05867346938775497: 91:1 163:1 214:1 obj 1\\
0.7704081632653061: 92:1 170:1 209:1 obj 1\\
0.06632653061224514: 29:1 216:1 224:1 obj 1\\






File: BPP_300_750_0.1_0.8_0.txt  Instance No. 1
Wed Feb 25 13:33:47 2015

LP0 Time: 0.26 IPTime: 0.26 The best integer solution (137):

1: 0:1 207:1 obj 1\\
1: 1:1 206:1 obj 1\\
1: 3:1 205:1 obj 1\\
1: 4:1 202:1 obj 1\\
1: 6:1 200:1 obj 1\\
1: 7:1 200:1 obj 1\\
1: 7:1 201:1 obj 1\\
1: 8:1 199:1 obj 1\\
1: 9:1 198:1 obj 1\\
1: 10:1 228:1 233:1 obj 1\\
1: 11:1 196:1 obj 1\\
1: 11:1 197:1 obj 1\\
1: 12:1 193:1 obj 1\\
1: 13:1 193:1 obj 1\\
1: 16:1 189:1 obj 1\\
2: 17:1 188:1 obj 1\\
1: 17:1 189:1 obj 1\\
1: 18:1 190:1 obj 1\\
1: 19:1 187:1 obj 1\\
1: 20:1 218:1 232:1 obj 1\\
1: 21:1 185:1 obj 1\\
1: 22:1 183:1 obj 1\\
1: 23:1 184:1 obj 1\\
1: 25:1 180:1 obj 1\\
1: 26:1 179:1 obj 1\\
1: 27:1 176:1 obj 1\\
1: 28:1 177:1 obj 1\\
1: 29:1 178:1 obj 1\\
2: 29:1 211:1 231:1 obj 1\\
1: 30:1 175:1 obj 1\\
1: 31:1 174:1 obj 1\\
1: 32:1 172:1 obj 1\\
2: 33:1 171:1 obj 1\\
1: 34:1 168:1 obj 1\\
1: 35:1 167:1 obj 1\\
1: 36:1 166:1 obj 1\\
1: 37:1 165:1 obj 1\\
1: 38:1 163:1 obj 1\\
1: 39:1 162:1 obj 1\\
1: 40:1 161:1 obj 1\\
1: 41:1 159:1 obj 1\\
1: 42:1 158:1 obj 1\\
1: 43:1 156:1 obj 1\\
1: 44:1 157:1 obj 1\\
1: 45:1 155:1 obj 1\\
1: 47:1 154:1 obj 1\\
1: 49:1 152:1 obj 1\\
1: 50:1 151:1 obj 1\\
1: 51:1 150:1 obj 1\\
1: 52:1 211:1 213:1 obj 1\\
1: 53:1 149:1 obj 1\\
1: 54:1 147:1 obj 1\\
1: 55:1 146:1 obj 1\\
1: 56:1 148:1 obj 1\\
1: 57:1 145:1 obj 1\\
1: 58:1 144:1 obj 1\\
1: 58:1 149:1 obj 1\\
1: 59:1 142:1 obj 1\\
1: 60:1 141:1 obj 1\\
1: 61:1 139:1 obj 1\\
1: 62:1 140:1 obj 1\\
1: 63:1 195:1 220:1 obj 1\\
1: 64:1 137:1 obj 1\\
1: 65:1 136:1 obj 1\\
1: 68:1 132:1 obj 1\\
1: 69:1 131:1 obj 1\\
1: 70:1 133:1 obj 1\\
1: 71:1 128:1 obj 1\\
1: 71:1 129:1 obj 1\\
1: 72:1 130:1 obj 1\\
1: 73:1 126:1 obj 1\\
1: 74:1 127:1 obj 1\\
1: 76:1 125:1 obj 1\\
1: 78:1 123:1 obj 1\\
1: 79:1 122:1 obj 1\\
1: 80:1 121:1 obj 1\\
1: 81:1 120:1 obj 1\\
1: 82:1 118:1 obj 1\\
1: 83:1 117:1 obj 1\\
1: 84:1 119:1 obj 1\\
1: 85:1 115:1 obj 1\\
1: 87:1 112:1 obj 1\\
1: 88:1 114:1 obj 1\\
1: 90:1 109:1 obj 1\\
1: 91:1 111:1 obj 1\\
1: 93:1 106:1 obj 1\\
1: 94:1 103:1 obj 1\\
1: 96:1 97:1 obj 1\\
1: 98:1 99:1 obj 1\\
1: 107:1 135:1 226:1 obj 1\\
1: 99:1 100:1 obj 1\\
1: 89:1 113:1 obj 1\\
1: 15:1 192:1 obj 1\\
1: 75:1 163:1 230:1 obj 1\\
1: 7:1 203:1 obj 1\\
1: 24:1 182:1 obj 1\\
1: 26:1 186:1 obj 1\\
1: 34:1 169:1 obj 1\\
1: 77:1 125:1 obj 1\\
1: 80:1 122:1 obj 1\\
1: 91:1 110:1 obj 1\\
1: 94:1 104:1 obj 1\\
1: 27:1 178:1 obj 1\\
1: 51:1 152:1 obj 1\\
1: 65:1 137:1 obj 1\\
1: 95:1 102:1 obj 1\\
1: 5:1 204:1 obj 1\\
1: 67:1 192:1 221:1 obj 1\\
1: 116:1 135:1 215:1 obj 1\\
1: 87:1 114:1 obj 1\\
1: 108:1 153:1 210:1 obj 1\\
1: 138:1 166:2 obj 1\\
1: 26:1 181:1 obj 1\\
1: 81:1 124:1 obj 1\\
1: 107:1 134:1 227:1 obj 1\\
1: 24:1 223:1 224:1 obj 1\\
1: 46:1 159:1 obj 1\\
1: 66:1 191:1 222:1 obj 1\\
1: 14:1 194:1 obj 1\\
1: 50:1 212:1 213:1 obj 1\\
1: 63:1 197:1 217:1 obj 1\\
1: 81:1 164:1 225:1 obj 1\\
1: 2:1 206:1 obj 1\\
1: 48:1 209:1 219:1 obj 1\\
1: 90:1 164:1 214:1 obj 1\\
1: 1:1 208:1 obj 1\\
2: 84:1 172:1 216:1 obj 1\\
1: 92:1 170:1 209:1 obj 1\\
1: 67:1 138:1 obj 1\\
1: 101:1 105:1 obj 1\\
1: 143:1 160:1 165:1 obj 1\\
1: 86:1 173:1 219:1 obj 1\\
1: 100:1 166:1 229:1 obj 1\\



The last LP solution 


File: BPP_300_750_0.1_0.8_0.txt  Instance No. 1
Wed Feb 25 13:33:47 2015

LP solution: lpval=136.8826530612245 lpbnd=137

1: 0:1 207:1 obj 1\\
1: 1:1 206:1 obj 1\\
1: 3:1 205:1 obj 1\\
1: 4:1 202:1 obj 1\\
0.2142857142857143: 5:1 203:1 obj 1\\
1: 6:1 200:1 obj 1\\
1: 7:1 200:1 obj 1\\
1: 7:1 201:1 obj 1\\
1: 8:1 199:1 obj 1\\
1: 9:1 198:1 obj 1\\
0.6147959183673468: 10:1 228:1 233:1 obj 1\\
1: 11:1 196:1 obj 1\\
1: 11:1 197:1 obj 1\\
1: 12:1 193:1 obj 1\\
1: 13:1 193:1 obj 1\\
1: 16:1 189:1 obj 1\\
2: 17:1 188:1 obj 1\\
1: 17:1 189:1 obj 1\\
1: 18:1 190:1 obj 1\\
1: 19:1 187:1 obj 1\\
0.7857142857142857: 20:1 218:1 232:1 obj 1\\
1: 21:1 185:1 obj 1\\
1: 22:1 183:1 obj 1\\
1: 23:1 184:1 obj 1\\
0.3698979591836733: 24:1 181:1 obj 1\\
1: 25:1 180:1 obj 1\\
1: 26:1 179:1 obj 1\\
1: 27:1 176:1 obj 1\\
1: 28:1 177:1 obj 1\\
1: 29:1 178:1 obj 1\\
1.704081632653061: 29:1 211:1 231:1 obj 1\\
1: 30:1 175:1 obj 1\\
1: 31:1 174:1 obj 1\\
1: 32:1 172:1 obj 1\\
2: 33:1 171:1 obj 1\\
1: 34:1 168:1 obj 1\\
1: 35:1 167:1 obj 1\\
1: 36:1 166:1 obj 1\\
1: 37:1 165:1 obj 1\\
1: 38:1 163:1 obj 1\\
1: 39:1 162:1 obj 1\\
1: 40:1 161:1 obj 1\\
1: 41:1 159:1 obj 1\\
1: 42:1 158:1 obj 1\\
1: 43:1 156:1 obj 1\\
0.8239795918367347: 44:1 157:1 obj 1\\
1: 45:1 155:1 obj 1\\
1: 47:1 154:1 obj 1\\
1: 49:1 152:1 obj 1\\
1: 50:1 151:1 obj 1\\
0.2295918367346937: 50:1 152:1 obj 1\\
1: 51:1 150:1 obj 1\\
1: 52:1 211:1 213:1 obj 1\\
1: 53:1 149:1 obj 1\\
1: 54:1 147:1 obj 1\\
1: 55:1 146:1 obj 1\\
1: 56:1 148:1 obj 1\\
0.8188775510204084: 57:1 145:1 obj 1\\
1: 58:1 144:1 obj 1\\
0.8188775510204084: 58:1 149:1 obj 1\\
0.7219387755102039: 59:1 142:1 obj 1\\
0.7219387755102039: 60:1 141:1 obj 1\\
1: 61:1 139:1 obj 1\\
1: 62:1 140:1 obj 1\\
1: 63:1 195:1 220:1 obj 1\\
1: 64:1 137:1 obj 1\\
1: 65:1 136:1 obj 1\\
0.3673469387755102: 65:1 138:1 obj 1\\
0.1326530612244898: 66:1 138:1 obj 1\\
1: 68:1 132:1 obj 1\\
1: 69:1 131:1 obj 1\\
1: 70:1 133:1 obj 1\\
1: 71:1 128:1 obj 1\\
1: 71:1 129:1 obj 1\\
1: 72:1 130:1 obj 1\\
1: 73:1 126:1 obj 1\\
1: 74:1 127:1 obj 1\\
1: 76:1 125:1 obj 1\\
0.07653061224489832: 77:1 124:1 obj 1\\
1: 78:1 123:1 obj 1\\
0.9515306122448979: 79:1 122:1 obj 1\\
1: 80:1 121:1 obj 1\\
1: 81:1 120:1 obj 1\\
0.04846938775510212: 81:1 122:1 obj 1\\
0.0280612244897962: 81:1 173:1 222:1 obj 1\\
1: 82:1 118:1 obj 1\\
0.6428571428571432: 83:1 117:1 obj 1\\
1: 84:1 119:1 obj 1\\
0.7704081632653061: 85:1 115:1 obj 1\\
0.3698979591836733: 86:1 113:1 obj 1\\
1: 87:1 112:1 obj 1\\
1: 88:1 114:1 obj 1\\
0.3698979591836733: 89:1 160:1 223:1 obj 1\\
1: 90:1 109:1 obj 1\\
0.2882653061224488: 90:1 110:1 obj 1\\
1: 91:1 111:1 obj 1\\
0.5969387755102041: 93:1 106:1 obj 1\\
1: 94:1 103:1 obj 1\\
0.5: 95:1 101:1 obj 1\\
1: 96:1 97:1 obj 1\\
1: 98:1 99:1 obj 1\\
0.3877551020408162: 100:2 obj 1\\
0.7091836734693879: 107:1 135:1 226:1 obj 1\\
1: 99:1 100:1 obj 1\\
0.2295918367346939: 86:1 115:1 obj 1\\
0.6301020408163267: 89:1 113:1 obj 1\\
0.5: 101:1 102:1 obj 1\\
0.1811224489795916: 57:1 209:1 211:1 obj 1\\
1: 15:1 192:1 obj 1\\
0.6147959183673468: 75:1 163:1 230:1 obj 1\\
0.7857142857142857: 7:1 203:1 obj 1\\
1: 24:1 182:1 obj 1\\
0.8010204081632658: 26:1 186:1 obj 1\\
1: 34:1 169:1 obj 1\\
0.9234693877551017: 77:1 125:1 obj 1\\
1: 80:1 122:1 obj 1\\
0.7117346938775512: 91:1 110:1 obj 1\\
0.8954081632653064: 94:1 104:1 obj 1\\
0.1326530612244898: 20:1 191:1 obj 1\\
0.2780612244897961: 26:1 217:1 227:1 obj 1\\
1: 27:1 178:1 obj 1\\
0.7704081632653063: 51:1 152:1 obj 1\\
0.6326530612244898: 65:1 137:1 obj 1\\
0.04846938775510207: 79:1 164:1 227:1 obj 1\\
0.4030612244897959: 93:1 107:1 obj 1\\
0.5: 95:1 102:1 obj 1\\
0.7857142857142857: 5:1 204:1 obj 1\\
0.2295918367346937: 29:1 212:1 229:1 obj 1\\
0.4005102040816328: 46:1 160:1 obj 1\\
0.2780612244897961: 60:1 142:1 obj 1\\
0.3673469387755102: 67:1 137:1 obj 1\\
1: 67:1 192:1 221:1 obj 1\\
0.04846938775510223: 67:1 197:1 214:1 obj 1\\
0.2295918367346939: 85:1 116:1 obj 1\\
0.4005102040816325: 86:1 114:1 obj 1\\
0.7704081632653061: 116:1 135:1 215:1 obj 1\\
0.1352040816326528: 135:1 164:1 172:1 obj 1\\
0.2780612244897961: 63:1 141:1 obj 1\\
0.5994897959183675: 87:1 114:1 obj 1\\
0.7704081632653061: 108:1 153:1 210:1 obj 1\\
1.5: 138:1 166:2 obj 1\\
0.6301020408163267: 26:1 181:1 obj 1\\
0.1760204081632653: 44:1 159:1 obj 1\\
0.1147959183673469: 51:1 153:1 obj 1\\
0.9234693877551017: 81:1 124:1 obj 1\\
0.1045918367346936: 94:1 105:1 obj 1\\
0.6734693877551019: 107:1 134:1 227:1 obj 1\\
0.03826530612244916: 125:2 216:1 obj 1\\
0.6301020408163267: 24:1 223:1 224:1 obj 1\\
0.2908163265306121: 26:1 219:1 226:1 obj 1\\
0.5994897959183672: 46:1 159:1 obj 1\\
0.1760204081632653: 48:1 157:1 obj 1\\
0.1811224489795916: 58:1 145:1 obj 1\\
0.8673469387755102: 66:1 191:1 222:1 obj 1\\
0.3571428571428568: 84:1 117:1 obj 1\\
0.2142857142857143: 107:1 143:1 218:1 obj 1\\
0.2295918367346939: 108:1 173:1 197:1 obj 1\\
0.2142857142857143: 7:1 231:1 232:1 obj 1\\
0.3852040816326531: 10:1 229:1 230:1 obj 1\\
1: 14:1 194:1 obj 1\\
0.7704081632653063: 50:1 212:1 213:1 obj 1\\
0.2780612244897961: 59:1 143:1 obj 1\\
0.7219387755102039: 63:1 197:1 217:1 obj 1\\
1: 81:1 164:1 225:1 obj 1\\
0.3571428571428568: 83:1 173:1 216:1 obj 1\\
0.4005102040816325: 87:1 165:1 219:1 obj 1\\
0.4030612244897959: 106:1 143:1 219:1 obj 1\\
1: 2:1 206:1 obj 1\\
0.08163265306122444: 20:1 219:1 231:1 obj 1\\
0.8239795918367347: 48:1 209:1 219:1 obj 1\\
0.1147959183673469: 51:1 213:2 obj 1\\
0.1989795918367342: 67:1 186:1 224:1 obj 1\\
0.7117346938775512: 90:1 164:1 214:1 obj 1\\
0.2295918367346939: 91:1 170:1 210:1 obj 1\\
0.1045918367346937: 104:1 143:1 222:1 obj 1\\
0.2142857142857143: 105:1 165:1 204:1 obj 1\\
1: 1:1 208:1 obj 1\\
0.3852040816326531: 67:1 173:1 233:1 obj 1\\
0.3852040816326531: 75:1 165:1 229:1 obj 1\\
1.538265306122449: 84:1 172:1 216:1 obj 1\\
0.2295918367346939: 92:1 160:1 215:1 obj 1\\
0.2244897959183676: 100:1 159:1 209:1 obj 1\\
0.3852040816326531: 105:1 135:1 228:1 obj 1\\
0.1811224489795916: 105:1 149:1 214:1 obj 1\\
0.114795918367347: 105:1 153:1 211:1 obj 1\\
0.3265306122448982: 134:1 163:1 172:1 obj 1\\
0.104591836734694: 84:1 164:1 224:1 obj 1\\
0.05867346938775497: 91:1 163:1 214:1 obj 1\\
0.7704081632653061: 92:1 170:1 209:1 obj 1\\
0.06632653061224514: 29:1 216:1 224:1 obj 1\\



